
List of user-set options:

                                    Name   Value                used
                           compl_inf_tol = 1                     yes
                         constr_viol_tol = 1                     yes
                            dual_inf_tol = 1000                  yes
                           linear_solver = ma97                  yes
                              ma86_small = 1e-30                  no
                                  ma86_u = 0.0001                 no
                              ma97_order = best                  yes
                              ma97_small = 1e-30                 yes
                            ma97_switch1 = at_start              yes
                            ma97_switch2 = od_hd_reuse           yes
                                  ma97_u = 1e-06                 yes
                               ma97_umax = 0.5                   yes
                                max_iter = 2000                  yes
                    max_refinement_steps = 20                    yes
                    min_refinement_steps = 5                     yes
                                 mu_init = 1e-06                 yes
           mu_superlinear_decrease_power = 1.25                  yes
                   nlp_scaling_min_value = 1e-08                 yes
                        option_file_name = Preset_Case:_173_NCP.opt  yes
                             output_file = ./tmp/Preset_Case:_173_NCP.output  yes
                      print_user_options = yes                   yes
        required_infeasibility_reduction = 1                      no
                                     tol = 1e-08                 yes
                   warm_start_bound_frac = 1e-20                 yes
                   warm_start_bound_push = 1e-20                 yes
                   warm_start_init_point = yes                   yes
              warm_start_mult_bound_push = 1e-20                 yes
                warm_start_mult_init_max = 1e+40                 yes
             warm_start_slack_bound_frac = 1e-20                 yes
             warm_start_slack_bound_push = 1e-20                 yes

******************************************************************************
This program contains Ipopt, a library for large-scale nonlinear optimization.
 Ipopt is released as open source code under the Eclipse Public License (EPL).
         For more information visit http://projects.coin-or.org/Ipopt
******************************************************************************

This is Ipopt version 3.12.10, running with linear solver ma97.

Number of nonzeros in equality constraint Jacobian...:   117140
Number of nonzeros in inequality constraint Jacobian.:      213
Number of nonzeros in Lagrangian Hessian.............:    47462

Total number of variables............................:    29971
                     variables with only lower bounds:    11312
                variables with lower and upper bounds:    15132
                     variables with only upper bounds:        0
Total number of equality constraints.................:    29864
Total number of inequality constraints...............:       25
        inequality constraints with only lower bounds:        4
   inequality constraints with lower and upper bounds:        0
        inequality constraints with only upper bounds:       21

iter    objective    inf_pr   inf_du lg(mu)  ||d||  lg(rg) alpha_du alpha_pr  ls
   0 -3.7912992e-02 2.67e-01 1.00e+00  -6.0 0.00e+00    -  0.00e+00 0.00e+00   0
In iteration 0, 4 Slacks too small, adjusting variable bounds
   1 -3.7912992e-02 2.67e-01 6.71e+03  -6.0 6.00e+07  -4.0 4.24e-08 1.32e-17f  1
   2 -3.7948279e-02 2.66e-01 6.71e+03  -6.0 6.52e+02  -4.5 7.02e-06 4.72e-03f  1
   3 -3.7949207e-02 2.66e-01 5.67e+03  -6.0 1.90e+02  -5.0 1.54e-01 1.45e-04f  1
   4 -3.8615144e-02 2.65e-01 5.67e+03  -6.0 7.44e+02  -5.4 2.65e-04 2.52e-03f  1
   5 -3.9023752e-02 1.68e+00 5.67e+03  -6.0 8.03e+02  -5.9 8.96e-05 6.65e-02f  1
   6 -4.0437016e-02 1.50e+01 5.49e+03  -6.0 6.98e+02  -6.4 3.15e-02 7.02e-02h  1
   7 -4.0493676e-02 1.49e+01 5.32e+03  -6.0 5.32e+02  -6.9 3.08e-02 1.15e-03h  1
   8 -4.0676433e-02 1.59e+01 5.02e+03  -6.0 5.23e+02  -6.4 5.80e-02 2.33e-02h  1
   9 -4.0744973e-02 1.90e+01 4.42e+03  -6.0 5.10e+02  -6.9 1.19e-01 1.67e-02h  1
iter    objective    inf_pr   inf_du lg(mu)  ||d||  lg(rg) alpha_du alpha_pr  ls
  10 -4.0734087e-02 1.90e+01 4.11e+03  -6.0 9.76e+02  -7.4 7.00e-02 3.69e-04h  5
  11 -4.0689876e-02 1.89e+01 3.43e+03  -6.0 5.05e+02  -7.0 1.64e-01 2.32e-03h  5
  12 -4.0680498e-02 1.89e+01 3.43e+03  -6.0 4.95e+02  -7.4 1.11e-03 3.26e-04h  8
  13 -4.0676229e-02 1.89e+01 3.43e+03  -6.0 2.71e+03  -6.1 1.47e-03 4.48e-05h  4
  14 -4.0675577e-02 1.89e+01 3.41e+03  -6.0 4.59e+02  -6.6 5.03e-03 4.78e-05h 11
  15 -4.0675232e-02 1.89e+01 3.40e+03  -6.0 3.19e+02  -6.2 1.47e-03 1.21e-05h  9
  16 -4.0480410e-02 1.88e+01 3.40e+03  -6.0 3.19e+02  -5.7 1.16e-03 5.08e-03h  1
  17 -4.0380458e-02 1.86e+01 3.35e+03  -6.0 4.26e+02  -6.2 1.55e-02 1.85e-02h  1
  18 -4.0184611e-02 1.85e+01 2.88e+03  -6.0 4.24e+02  -6.7 1.39e-01 1.15e-02h  1
  19 -4.0180602e-02 1.85e+01 2.74e+03  -6.0 4.27e+02  -7.2 4.83e-02 1.96e-03h  2
iter    objective    inf_pr   inf_du lg(mu)  ||d||  lg(rg) alpha_du alpha_pr  ls
  20 -4.0153409e-02 1.85e+01 2.73e+03  -6.0 4.21e+02  -7.6 3.09e-03 1.02e-03h  3
  21r-4.0153409e-02 1.85e+01 1.00e+03   0.7 0.00e+00  -5.4 0.00e+00 3.99e-07R  5
  22r-4.0240187e-02 1.85e+01 1.09e+03   0.7 4.85e+05    -  1.85e-09 3.39e-08f  1
  23r-4.0228379e-02 1.85e+01 3.90e+03   0.7 2.07e+04    -  8.68e-07 5.07e-08f  1
  24r-3.9997981e-02 1.85e+01 3.87e+03   0.7 9.66e+03    -  8.13e-07 1.50e-06f  1
  25 -3.9995625e-02 1.85e+01 5.73e+04  -6.0 5.63e+01    -  1.18e-02 4.23e-04h  1
  26 -3.9892529e-02 1.81e+01 2.36e+06  -6.0 6.89e+01    -  4.45e-04 1.77e-02h  1
  27 -3.9846571e-02 1.80e+01 2.34e+06  -6.0 6.97e+01    -  2.42e-01 7.92e-03h  1
  28 -3.8294258e-02 1.26e+01 1.67e+06  -6.0 6.92e+01    -  2.80e-02 2.95e-01h  1
  29 -3.7699462e-02 9.16e+00 1.21e+06  -6.0 7.34e+01    -  2.00e-01 2.72e-01h  1
iter    objective    inf_pr   inf_du lg(mu)  ||d||  lg(rg) alpha_du alpha_pr  ls
  30 -3.7944334e-02 8.61e+00 1.14e+06  -6.0 8.77e+01    -  1.64e-01 6.02e-02h  1
  31 -3.8192326e-02 8.21e+00 1.09e+06  -6.0 7.65e+01    -  1.29e-01 4.59e-02h  1
  32 -3.8393109e-02 7.57e+00 1.00e+06  -6.0 1.21e+02    -  2.18e-01 7.88e-02h  1
  33 -3.8406608e-02 7.53e+00 9.97e+05  -6.0 1.39e+02    -  2.91e-01 4.84e-03h  1
  34 -3.8527862e-02 7.14e+00 9.46e+05  -6.0 1.50e+02    -  2.98e-01 5.15e-02h  1
  35 -3.8547862e-02 6.68e+00 8.84e+05  -6.0 1.43e+02    -  7.37e-02 6.47e-02h  1
  36 -3.8553517e-02 6.19e+00 8.20e+05  -6.0 1.41e+02    -  3.61e-01 7.33e-02h  1
  37 -3.8478870e-02 4.99e+00 6.69e+05  -6.0 1.54e+02    -  9.80e-02 1.83e-01h  1
  38 -3.8478120e-02 4.98e+00 6.68e+05  -6.0 3.67e+02    -  2.10e-01 2.31e-03h  1
  39 -3.8385641e-02 3.93e+00 5.35e+05  -6.0 3.61e+02    -  2.35e-01 1.98e-01h  1
iter    objective    inf_pr   inf_du lg(mu)  ||d||  lg(rg) alpha_du alpha_pr  ls
  40 -3.7674926e-02 2.48e+00 2.37e+05  -6.0 3.30e+02    -  5.07e-01 5.59e-01H  1
  41 -3.7895531e-02 1.28e+00 1.22e+05  -6.0 4.85e+01    -  7.96e-01 4.85e-01h  1
  42 -3.7858018e-02 1.28e+00 1.22e+05  -6.0 6.54e+02  -5.9 1.25e-05 7.63e-04h  5
  43 -3.7858054e-02 1.28e+00 2.46e+06  -6.0 2.94e+01  -4.6 4.29e-01 1.35e-04h  1
  44 -3.7780034e-02 1.28e+00 2.44e+06  -6.0 2.34e+02  -5.0 3.39e-03 7.99e-03h  5
  45 -3.7936611e-02 3.96e-01 8.03e+05  -6.0 2.27e+01  -4.6 1.22e-01 6.70e-01h  1
  46 -3.7975426e-02 3.46e-01 6.99e+05  -6.0 2.29e+01  -5.1 1.16e-01 1.30e-01h  1
  47 -3.7981243e-02 3.43e-01 6.93e+05  -6.0 2.57e+01  -5.6 3.96e-01 8.14e-03h  1
  48 -3.7629402e-02 1.91e-01 1.35e+05  -6.0 1.97e+01  -5.1 4.71e-01 1.00e+00H  1
  49 -3.9048218e-02 3.26e-01 2.46e+05  -6.0 1.76e+01  -5.6 1.13e-01 5.02e-01h  1
iter    objective    inf_pr   inf_du lg(mu)  ||d||  lg(rg) alpha_du alpha_pr  ls
  50r-3.9048218e-02 3.26e-01 1.00e+03  -1.0 0.00e+00  -5.2 0.00e+00 3.36e-07R  4
  51r-3.9088895e-02 3.19e-01 1.03e+03  -1.0 5.77e+03    -  4.79e-05 2.05e-05f  1
  52 -3.9093383e-02 3.15e-01 2.09e+06  -6.0 3.75e+00    -  3.34e-02 1.22e-02h  1
  53 -3.9097078e-02 3.12e-01 1.49e+06  -6.0 3.85e+00    -  1.22e-02 1.01e-02h  1
  54 -3.9115828e-02 2.96e-01 1.41e+06  -6.0 3.90e+00    -  1.73e-01 5.32e-02h  1
  55 -3.9227789e-02 2.04e-01 9.77e+05  -6.0 3.92e+00    -  8.55e-02 3.10e-01h  1
  56 -3.9335636e-02 1.20e-01 5.75e+05  -6.0 2.81e+00    -  7.71e-01 4.12e-01h  1
  57 -3.9495901e-02 7.63e-04 4.99e+01  -6.0 1.90e+00    -  8.92e-01 1.00e+00h  1
  58 -3.9738796e-02 8.68e-04 8.14e+01  -6.0 3.89e+00    -  7.89e-01 1.00e+00h  1
  59 -4.1976429e-02 2.27e-02 3.51e+01  -6.0 3.45e+01    -  6.53e-01 9.13e-01h  1
iter    objective    inf_pr   inf_du lg(mu)  ||d||  lg(rg) alpha_du alpha_pr  ls
  60 -4.2525925e-02 2.57e-01 2.70e+01  -6.0 9.07e+00  -5.7 6.65e-01 1.00e+00f  1
  61 -4.3689860e-02 3.68e-01 1.89e+01  -6.0 3.45e+01  -6.1 2.77e-01 3.30e-01h  1
  62 -4.9898146e-02 3.45e+00 7.14e+01  -6.0 1.99e+02    -  1.32e-01 5.89e-01h  1
  63 -5.0443240e-02 2.57e+00 5.06e+01  -6.0 1.91e+01  -5.7 5.00e-01 2.76e-01h  1
  64 -5.0855972e-02 2.11e+00 4.25e+01  -6.0 3.71e+01  -6.2 1.54e-01 1.76e-01h  1
  65 -5.1504896e-02 1.48e+00 3.28e+01  -6.0 2.22e+01  -5.8 2.25e-01 3.20e-01h  1
  66 -5.1972332e-02 1.49e+00 8.52e+01  -6.0 3.40e+03    -  5.55e-03 1.36e-03h  1
  67 -5.4025143e-02 1.70e+00 4.03e+01  -6.0 8.38e+02    -  2.70e-02 4.36e-02h  1
  68 -5.9384472e-02 2.79e+00 2.59e+02  -6.0 8.01e+02    -  1.56e-02 1.30e-01h  1
  69 -6.0154108e-02 2.76e+00 6.73e+02  -6.0 5.61e+02    -  3.99e-01 2.51e-02h  1
iter    objective    inf_pr   inf_du lg(mu)  ||d||  lg(rg) alpha_du alpha_pr  ls
  70 -6.7389535e-02 4.93e+00 9.75e+02  -6.0 7.46e+02    -  5.21e-01 2.08e-01h  1
  71 -6.9211210e-02 4.71e+00 9.40e+02  -6.0 1.16e+03    -  1.93e-01 5.06e-02h  1
  72 -7.0966925e-02 4.60e+00 5.71e+02  -6.0 1.36e+03    -  3.07e-01 4.78e-02h  1
  73 -7.5651804e-02 5.53e+00 1.06e+04  -6.0 1.72e+03    -  3.06e-01 1.88e-01h  1
  74 -8.0303299e-02 7.56e+00 1.55e+05  -6.0 2.03e+03    -  2.56e-02 1.64e-01h  1
  75 -8.1066006e-02 7.51e+00 1.50e+05  -6.0 1.16e+03    -  3.72e-02 3.11e-02h  1
  76 -8.3039906e-02 7.18e+00 1.43e+05  -6.0 1.34e+03    -  1.70e-01 4.92e-02h  1
  77 -8.3200180e-02 7.14e+00 1.42e+05  -6.0 4.99e+02  -6.2 2.65e-03 9.42e-03h  1
  78 -8.6899779e-02 5.28e+00 9.80e+04  -6.0 2.07e+02  -6.7 1.06e-02 3.08e-01h  1
  79 -8.6997650e-02 5.26e+00 9.75e+04  -6.0 4.16e+02  -7.2 1.00e-02 5.19e-03f  1
iter    objective    inf_pr   inf_du lg(mu)  ||d||  lg(rg) alpha_du alpha_pr  ls
  80 -9.0091104e-02 4.60e+00 8.50e+04  -6.0 5.12e+02  -7.7 6.50e-02 1.28e-01h  1
  81 -9.1917907e-02 4.40e+00 8.08e+04  -6.0 1.36e+03  -8.2 9.37e-02 4.91e-02h  1
  82 -9.2987811e-02 4.30e+00 7.87e+04  -6.0 1.35e+03  -7.7 4.25e-02 2.64e-02h  1
  83 -9.3428527e-02 4.25e+00 7.53e+04  -6.0 1.69e+03  -8.2 6.37e-02 4.37e-02h  1
  84 -9.5575417e-02 4.00e+00 7.07e+04  -6.0 3.37e+03  -8.7 2.27e-01 6.14e-02h  1
  85 -9.8721794e-02 3.35e+00 5.77e+04  -6.0 1.46e+03  -9.2 1.68e-01 1.84e-01h  1
  86 -1.0142236e-01 2.64e+00 4.46e+04  -6.0 1.05e+03  -7.8 1.81e-02 2.26e-01h  1
  87 -1.0208258e-01 2.48e+00 4.16e+04  -6.0 3.67e+02  -8.3 1.12e-01 6.84e-02h  1
  88 -1.0601399e-01 3.54e+00 2.91e+04  -6.0 1.02e+03  -8.8 8.69e-02 3.01e-01h  1
  89 -1.0731174e-01 4.44e+00 2.44e+04  -6.0 4.23e+02  -8.4 2.76e-01 1.59e-01h  1
iter    objective    inf_pr   inf_du lg(mu)  ||d||  lg(rg) alpha_du alpha_pr  ls
  90 -1.0848928e-01 4.80e+00 2.01e+04  -6.0 5.46e+02  -7.9 1.55e-01 1.76e-01h  1
  91 -1.0864854e-01 4.65e+00 1.95e+04  -6.0 6.29e+02  -8.4 5.68e-02 3.03e-02h  1
  92 -1.1047183e-01 3.77e+00 2.92e+04  -6.0 7.58e+02  -8.9 2.90e-03 1.87e-01f  1
  93 -1.1261698e-01 3.04e+00 2.33e+04  -6.0 1.72e+03  -9.4 7.25e-02 1.88e-01h  1
  94 -1.1395165e-01 1.33e+01 2.12e+04  -6.0 8.23e+03  -9.8 5.42e-02 9.16e-02h  1
  95 -1.1457080e-01 1.27e+01 2.02e+04  -6.0 4.84e+03    -  7.78e-03 5.32e-02h  1
  96 -1.1533682e-01 1.19e+01 1.82e+04  -6.0 1.59e+03    -  1.52e-01 9.38e-02h  1
  97 -1.1691060e-01 1.02e+01 1.45e+04  -6.0 1.78e+03    -  1.58e-01 1.88e-01h  1
  98 -1.1836872e-01 8.43e+00 1.02e+04  -6.0 1.42e+03    -  2.56e-01 2.76e-01h  1
  99 -1.2078187e-01 5.62e+00 4.62e+03  -6.0 1.94e+03    -  4.15e-02 4.92e-01h  1
iter    objective    inf_pr   inf_du lg(mu)  ||d||  lg(rg) alpha_du alpha_pr  ls
 100 -1.2095440e-01 4.63e+00 3.72e+03  -6.0 1.12e+03  -9.4 5.27e-01 1.97e-01h  1
 101 -1.2275995e-01 4.03e+00 5.72e+03  -6.0 1.72e+03    -  3.25e-01 7.00e-01h  1
 102 -1.2313118e-01 2.58e+00 3.30e+03  -6.0 5.00e+02  -9.0 3.72e-01 3.61e-01h  1
 103 -1.2361267e-01 2.02e+00 6.41e+06  -6.0 6.05e+02  -9.5 1.77e-03 3.92e-01h  1
 104 -1.2399598e-01 1.29e+00 2.45e+06  -6.0 2.58e+02  -9.0 4.02e-01 6.17e-01h  1
 105 -1.2431867e-01 3.78e-02 6.07e+04  -6.0 2.74e+01  -7.7 5.52e-01 9.75e-01h  1
 106 -1.2458964e-01 3.88e-02 4.38e+04  -6.0 1.05e+02  -8.2 6.08e-01 2.79e-01h  1
 107 -1.2512775e-01 2.25e-01 3.13e+04  -6.0 2.75e+02  -8.7 2.95e-01 2.83e-01h  1
 108 -1.2574877e-01 6.36e-01 1.60e+04  -6.0 4.22e+02  -9.1 6.21e-01 4.89e-01h  1
 109 -1.2595782e-01 5.60e-01 2.53e+06  -6.0 6.07e+02  -8.7 1.87e-03 1.23e-01h  1
iter    objective    inf_pr   inf_du lg(mu)  ||d||  lg(rg) alpha_du alpha_pr  ls
 110 -1.2609744e-01 4.30e-01 1.94e+06  -6.0 1.26e+02  -8.3 1.18e-01 2.32e-01h  1
 111 -1.2631307e-01 3.35e-01 1.41e+06  -6.0 1.83e+02  -8.8 3.79e-01 2.72e-01h  1
 112 -1.2670383e-01 7.13e-01 1.02e+06  -6.0 6.75e+02  -9.2 2.88e-01 2.81e-01h  1
 113 -1.2811186e-01 2.33e+01 8.52e+05  -6.0 6.58e+03  -9.7 1.48e-01 1.61e-01h  1
 114 -1.2828809e-01 2.23e+01 8.16e+05  -6.0 6.90e+03 -10.2 3.55e-02 4.20e-02h  1
 115 -1.2848050e-01 2.22e+01 8.01e+05  -6.0 6.05e+03  -9.8 3.01e-02 1.82e-02h  1
 116 -1.2965747e-01 3.75e+01 6.13e+05  -6.0 5.38e+03 -10.3 2.65e-02 2.35e-01h  1
 117 -1.2975593e-01 3.68e+01 6.01e+05  -6.0 6.67e+03 -10.7 8.47e-02 2.02e-02h  1
 118 -1.3024278e-01 3.55e+01 5.68e+05  -6.0 3.25e+04    -  1.88e-02 5.38e-02h  1
 119 -1.3108597e-01 3.10e+01 4.69e+05  -6.0 7.23e+03    -  4.24e-02 1.74e-01h  1
iter    objective    inf_pr   inf_du lg(mu)  ||d||  lg(rg) alpha_du alpha_pr  ls
 120 -1.3127415e-01 2.97e+01 4.48e+05  -6.0 1.71e+03    -  8.50e-02 4.54e-02h  1
 121 -1.3155734e-01 2.78e+01 4.17e+05  -6.0 1.82e+03    -  2.32e-04 6.97e-02h  1
 122 -1.3237353e-01 2.21e+01 3.27e+05  -6.0 3.98e+03    -  4.32e-03 2.14e-01h  1
 123 -1.3268134e-01 2.02e+01 2.98e+05  -6.0 1.06e+03 -10.3 7.07e-01 8.98e-02h  1
 124 -1.3391837e-01 1.09e+01 1.60e+05  -6.0 2.26e+03 -10.8 4.30e-01 4.63e-01h  1
 125 -1.3394323e-01 1.27e+01 1.57e+05  -6.0 4.46e+04    -  6.56e-02 1.60e-02h  1
 126 -1.3422856e-01 1.04e+01 1.28e+05  -6.0 2.03e+03    -  6.84e-02 1.85e-01h  1
 127 -1.3469557e-01 6.63e+00 8.20e+04  -6.0 1.92e+03    -  5.39e-01 3.61e-01h  1
 128 -1.3481965e-01 6.45e+00 6.90e+04  -6.0 2.14e+03    -  7.28e-01 1.58e-01h  1
 129 -1.3508152e-01 3.59e+00 3.83e+04  -6.0 7.42e+02    -  2.24e-01 4.47e-01h  1
iter    objective    inf_pr   inf_du lg(mu)  ||d||  lg(rg) alpha_du alpha_pr  ls
 130 -1.3528933e-01 2.45e+00 2.62e+04  -6.0 6.66e+02    -  2.56e-01 3.17e-01h  1
 131 -1.3536571e-01 2.70e+00 2.40e+04  -6.0 1.75e+03    -  4.12e-02 8.38e-02h  1
 132 -1.3576322e-01 1.46e+01 2.36e+03  -6.0 2.20e+02    -  3.60e-01 9.06e-01h  1
 133 -1.3601241e-01 1.02e+01 1.31e+03  -6.0 3.99e+02    -  5.56e-01 4.49e-01h  1
 134 -1.3618984e-01 8.25e+00 9.37e+03  -6.0 2.09e+02    -  1.00e+00 3.68e-01h  1
 135 -1.3652641e-01 3.11e+00 7.12e+03  -6.0 4.79e+02    -  2.13e-01 7.45e-01h  1
 136 -1.3670160e-01 2.50e+00 6.51e+06  -6.0 4.33e+02 -10.4 1.37e-03 3.21e-01h  1
 137 -1.3655313e-01 1.59e+00 3.07e+06  -6.0 7.38e+02  -9.9 3.48e-01 5.29e-01H  1
 138 -1.3645277e-01 2.16e+00 3.98e+02  -6.0 2.15e+02    -  1.00e+00 1.00e+00h  1
 139 -1.3661697e-01 1.31e+00 2.39e+02  -6.0 3.77e+02  -9.5 4.02e-01 3.94e-01h  1
iter    objective    inf_pr   inf_du lg(mu)  ||d||  lg(rg) alpha_du alpha_pr  ls
 140 -1.3658426e-01 1.42e-01 1.32e-01  -6.0 1.90e+01  -9.1 1.00e+00 1.00e+00h  1
 141 -1.3661184e-01 7.10e-01 1.66e+01  -6.0 2.64e+02  -9.6 5.10e-01 2.03e-01h  1
 142 -1.3666895e-01 1.42e-01 4.68e-01  -6.0 6.92e+01  -9.1 1.00e+00 1.00e+00h  1
 143 -1.3666145e-01 7.30e-01 7.53e+00  -6.0 1.12e+03  -9.6 1.56e-01 1.28e-01h  1
 144 -1.3658916e-01 1.18e+00 6.11e+00  -6.0 2.01e+02  -9.2 7.22e-01 1.00e+00h  1
 145 -1.3658974e-01 1.14e+00 2.17e+01  -6.0 4.26e+03    -  1.41e-01 3.27e-02h  2
 146 -1.3657515e-01 1.20e+00 1.80e+01  -6.0 6.85e+02    -  5.06e-01 3.48e-01h  1
 147 -1.3654619e-01 4.41e+00 8.23e+00  -6.0 5.09e+02    -  1.00e+00 1.00e+00h  1
 148 -1.3655205e-01 2.95e+00 4.61e+01  -6.0 2.50e+02    -  4.18e-01 3.31e-01h  1
 149 -1.3658160e-01 1.43e+00 1.03e+01  -6.0 2.27e+02    -  1.00e+00 1.00e+00h  1
iter    objective    inf_pr   inf_du lg(mu)  ||d||  lg(rg) alpha_du alpha_pr  ls
 150 -1.3660285e-01 1.10e+00 1.14e+02  -6.0 2.34e+02    -  4.44e-01 3.91e-01h  1
 151 -1.3665306e-01 1.40e+00 3.45e+01  -6.0 2.27e+02    -  1.00e+00 1.00e+00h  1
 152 -1.3667584e-01 1.19e+00 6.36e+02  -6.0 2.87e+02    -  3.39e-01 3.94e-01h  1
 153 -1.3669353e-01 1.11e+00 1.25e+04  -6.0 3.83e+02    -  8.82e-01 2.20e-01h  1
 154 -1.3680809e-01 1.22e+00 5.70e+06  -6.0 1.30e+02  -9.7 2.50e-03 5.37e-01h  1
 155 -1.3668415e-01 1.15e-01 7.27e+02  -6.0 7.82e+01    -  1.89e-01 1.00e+00h  1
 156 -1.3670201e-01 9.77e-02 4.11e-01  -6.0 3.11e+01  -9.2 1.00e+00 1.00e+00h  1
 157 -1.3670522e-01 6.02e-01 2.31e+00  -6.0 1.13e+02  -9.7 1.00e+00 1.00e+00h  1
 158 -1.3671668e-01 6.65e-01 1.19e+01  -6.0 2.35e+02    -  1.00e+00 1.25e-01h  4
 159 -1.3669210e-01 3.73e-01 1.13e+00  -6.0 6.00e+01    -  1.00e+00 1.00e+00h  1
iter    objective    inf_pr   inf_du lg(mu)  ||d||  lg(rg) alpha_du alpha_pr  ls
 160 -1.3671864e-01 1.22e-01 5.48e-01  -6.0 2.46e+01    -  1.00e+00 1.00e+00h  1
 161 -1.3671881e-01 4.60e-05 2.51e-04  -6.0 1.22e+00    -  1.00e+00 1.00e+00h  1
 162 -1.3671880e-01 2.04e-09 8.14e-09  -6.0 5.39e-03    -  1.00e+00 1.00e+00h  1
 163 -1.3703505e-01 4.95e+00 1.70e+01  -7.5 2.89e+03    -  1.51e-01 9.19e-02f  1
 164 -1.3774049e-01 8.91e+00 3.66e+01  -7.5 4.12e+03    -  1.92e-01 2.96e-01h  1
 165 -1.3784345e-01 8.08e+00 5.94e+01  -7.5 8.72e+02 -10.2 4.59e-01 9.42e-02h  1
 166 -1.3801295e-01 5.51e+01 4.12e+01  -7.5 1.54e+04    -  5.81e-04 1.09e-01h  1
 167 -1.3805695e-01 5.20e+01 1.12e+03  -7.5 1.28e+03 -10.7 7.17e-05 5.77e-02h  1
 168 -1.3829054e-01 3.80e+01 8.03e+02  -7.5 5.33e+03 -11.1 3.02e-02 2.80e-01h  1
 169 -1.3833515e-01 3.51e+01 7.40e+02  -7.5 2.86e+03    -  1.02e-01 7.84e-02h  1
iter    objective    inf_pr   inf_du lg(mu)  ||d||  lg(rg) alpha_du alpha_pr  ls
 170 -1.3838839e-01 3.13e+01 6.60e+02  -7.5 2.52e+03    -  3.69e-01 1.08e-01h  1
 171 -1.3848726e-01 2.43e+01 5.13e+02  -7.5 2.48e+03    -  1.87e-01 2.22e-01h  1
 172 -1.3860792e-01 1.73e+01 3.64e+02  -7.5 2.86e+03    -  2.26e-01 2.91e-01h  1
 173 -1.3871813e-01 2.06e+01 3.12e+02  -7.5 6.45e+03    -  7.37e-02 1.43e-01h  1
 174 -1.3871988e-01 2.05e+01 3.11e+02  -7.5 1.28e+02  -7.1 9.20e-06 4.84e-03h  1
 175 -1.3873856e-01 1.84e+01 2.78e+02  -7.5 4.53e+01  -7.6 2.60e-03 1.04e-01h  1
 176 -1.3878551e-01 1.75e+01 2.45e+02  -7.5 2.53e+03    -  1.58e-01 1.20e-01h  1
 177 -1.3882326e-01 1.06e+01 1.49e+02  -7.5 3.90e+01  -8.1 2.29e-02 3.91e-01h  1
 178 -1.3884051e-01 1.06e+01 1.39e+02  -7.5 3.08e+03    -  4.47e-01 8.23e-02h  1
 179 -1.3884657e-01 1.05e+01 1.35e+02  -7.5 3.75e+03    -  1.55e-01 2.97e-02h  1
iter    objective    inf_pr   inf_du lg(mu)  ||d||  lg(rg) alpha_du alpha_pr  ls
 180 -1.3892564e-01 7.42e+01 7.44e+02  -7.5 4.76e+03    -  2.58e-01 4.67e-01h  1
 181 -1.3894854e-01 6.42e+01 6.45e+02  -7.5 1.58e+03    -  3.13e-02 1.40e-01h  1
 182 -1.3895979e-01 6.08e+01 6.07e+02  -7.5 3.68e+03    -  8.08e-02 6.76e-02h  1
 183 -1.3896199e-01 6.00e+01 5.98e+02  -7.5 1.80e+03  -8.5 3.40e-05 1.45e-02h  1
 184 -1.3896715e-01 5.42e+01 5.41e+02  -7.5 2.98e+01  -9.0 7.46e-02 9.61e-02h  1
 185 -1.3897373e-01 4.80e+01 4.79e+02  -7.5 2.55e+02  -9.5 1.45e-02 1.14e-01h  1
 186 -1.3898377e-01 4.13e+01 4.12e+02  -7.5 6.68e+02 -10.0 1.38e-01 1.41e-01h  1
 187 -1.3906046e-01 8.51e+00 8.40e+01  -7.5 6.23e+02 -10.4 2.18e-01 8.92e-01h  1
 188 -1.3907019e-01 8.35e+00 8.09e+01  -7.5 3.61e+03    -  9.77e-02 4.57e-02h  1
 189 -1.3908738e-01 8.79e+00 7.52e+01  -7.5 2.68e+03    -  8.57e-02 1.07e-01h  1
iter    objective    inf_pr   inf_du lg(mu)  ||d||  lg(rg) alpha_du alpha_pr  ls
 190 -1.3910404e-01 9.71e+00 7.11e+01  -7.5 3.25e+03    -  1.11e-01 1.03e-01h  1
 191 -1.3913158e-01 1.11e+01 6.64e+01  -7.5 2.27e+03    -  3.69e-02 1.94e-01h  1
 192 -1.3913615e-01 6.82e+01 6.74e+01  -7.5 3.40e+05    -  1.12e-03 6.82e-03h  1
 193 -1.3913823e-01 6.70e+01 6.64e+01  -7.5 1.51e+03    -  1.41e-01 1.78e-02h  1
 194 -1.3916576e-01 5.23e+01 5.90e+01  -7.5 1.69e+03    -  2.44e-01 2.25e-01h  1
 195 -1.3918717e-01 4.30e+01 5.39e+01  -7.5 1.65e+03    -  9.18e-02 1.82e-01h  1
 196 -1.3924156e-01 2.89e+01 9.31e+01  -7.5 1.66e+03    -  1.70e-01 4.73e-01h  1
 197 -1.3925569e-01 2.59e+01 8.92e+01  -7.5 1.81e+03    -  1.35e-01 1.53e-01h  1
 198 -1.3929431e-01 3.30e+01 1.77e+02  -7.5 4.88e+03    -  3.17e-03 2.38e-01h  1
 199 -1.3929375e-01 3.31e+01 1.77e+02  -7.5 1.63e+04    -  5.16e-02 1.02e-02h  1
iter    objective    inf_pr   inf_du lg(mu)  ||d||  lg(rg) alpha_du alpha_pr  ls
 200 -1.3929524e-01 9.95e+01 1.39e+03  -7.5 9.41e+03    -  2.69e-02 2.62e-01h  1
 201 -1.3930352e-01 9.32e+01 1.36e+03  -7.5 1.72e+03    -  4.21e-03 6.36e-02h  1
 202 -1.3930451e-01 9.12e+01 1.33e+03  -7.5 8.00e+03    -  2.48e-02 3.20e-02h  1
 203 -1.3930465e-01 9.11e+01 1.33e+03  -7.5 9.65e+03    -  4.00e-04 5.98e-04h  1
 204 -1.3930465e-01 9.10e+01 1.44e+03  -7.5 1.01e+04    -  7.56e-03 1.09e-03f  1
 205 -1.3930471e-01 9.10e+01 1.62e+03  -7.5 1.78e+03    -  2.16e-02 5.76e-04h  1
 206 -1.3930471e-01 9.09e+01 1.62e+03  -7.5 5.45e+03    -  1.94e-03 2.05e-04h  1
 207 -1.3930836e-01 8.56e+01 1.52e+03  -7.5 2.25e+03    -  2.15e-02 6.19e-02h  1
 208 -1.3930891e-01 8.48e+01 1.51e+03  -7.5 2.32e+03    -  6.86e-02 9.94e-03h  1
 209 -1.3931232e-01 7.98e+01 1.42e+03  -7.5 2.25e+03    -  2.99e-01 6.18e-02h  1
iter    objective    inf_pr   inf_du lg(mu)  ||d||  lg(rg) alpha_du alpha_pr  ls
 210 -1.3933623e-01 5.86e+01 7.44e+02  -7.5 2.24e+03    -  1.60e-01 4.75e-01h  1
 211 -1.3933645e-01 5.82e+01 7.39e+02  -7.5 9.62e+02 -10.0 1.01e-02 7.22e-03h  1
 212 -1.3933804e-01 5.68e+01 7.22e+02  -7.5 1.60e+03    -  1.47e-02 2.35e-02f  1
 213 -1.3934702e-01 4.75e+01 6.03e+02  -7.5 4.43e+02 -10.5 9.53e-02 1.65e-01h  1
 214 -1.3935540e-01 4.42e+01 5.61e+02  -7.5 3.54e+03 -11.0 1.91e-02 6.88e-02h  1
 215 -1.3940219e-01 1.50e+01 1.58e+03  -7.5 3.16e+02 -10.5 8.22e-02 6.68e-01h  1
 216 -1.3940803e-01 1.46e+01 1.50e+03  -7.5 2.71e+03 -11.0 3.63e-02 3.30e-02h  1
 217 -1.3948489e-01 7.48e+00 3.32e+03  -7.5 6.74e+02 -10.6 3.56e-01 6.91e-01h  1
 218 -1.3949462e-01 8.31e+00 5.58e+05  -7.5 6.06e+03 -11.1 6.84e-04 8.55e-02h  2
 219 -1.3953860e-01 1.50e+01 6.08e+04  -7.5 9.40e+02 -10.6 1.18e-01 8.90e-01h  1
iter    objective    inf_pr   inf_du lg(mu)  ||d||  lg(rg) alpha_du alpha_pr  ls
 220 -1.3955166e-01 9.97e+00 3.91e+04  -7.5 3.28e+02 -10.2 3.13e-01 3.57e-01h  1
 221 -1.3959709e-01 2.70e+01 3.23e+04  -7.5 5.45e+03 -10.7 2.06e-01 1.74e-01h  1
 222 -1.3960135e-01 2.59e+01 3.10e+04  -7.5 3.65e+02 -10.3 4.22e-01 3.99e-02h  1
 223 -1.3961357e-01 3.92e+01 3.18e+04  -7.5 1.37e+04    -  6.22e-02 9.95e-02h  1
 224 -1.3962511e-01 3.55e+01 3.03e+04  -7.5 1.44e+03    -  1.89e-02 1.07e-01h  1
 225 -1.3967540e-01 1.87e+01 5.26e+04  -7.5 1.19e+03    -  1.43e-01 4.75e-01h  1
 226 -1.3970034e-01 1.46e+01 3.82e+04  -7.5 1.77e+03    -  1.17e-01 2.21e-01h  1
 227 -1.3970087e-01 1.44e+01 3.78e+04  -7.5 3.41e+03    -  4.58e-01 1.07e-02h  1
 228 -1.3971855e-01 3.50e+01 1.55e+04  -7.5 3.28e+03    -  8.78e-01 4.68e-01h  1
 229 -1.3974634e-01 2.26e+01 3.75e+03  -7.5 1.39e+03    -  9.45e-02 9.44e-01h  1
iter    objective    inf_pr   inf_du lg(mu)  ||d||  lg(rg) alpha_du alpha_pr  ls
 230 -1.3975480e-01 6.75e+00 9.51e+02  -7.5 3.62e+02 -10.7 6.72e-01 7.34e-01h  1
 231 -1.3975631e-01 5.53e+00 9.22e+02  -7.5 3.95e+03    -  4.74e-03 3.08e-02H  1
 232 -1.3975757e-01 3.70e+01 3.41e+01  -7.5 1.83e+03    -  8.24e-01 1.00e+00H  1
 233 -1.3976096e-01 2.91e+01 2.78e+01  -7.5 1.62e+03 -11.2 7.50e-01 1.83e-01h  1
 234 -1.3976200e-01 1.30e-01 1.90e+01  -7.5 1.35e+02    -  1.00e-01 1.00e+00h  1
 235 -1.3976310e-01 2.40e-01 1.65e+01  -7.5 7.18e+02    -  1.00e+00 1.47e-01h  1
 236 -1.3976357e-01 6.93e-02 1.37e+00  -7.5 5.68e+01    -  1.00e+00 1.00e+00h  1
 237 -1.3976288e-01 3.49e-03 9.92e-02  -7.5 1.28e+01    -  1.00e+00 1.00e+00h  1
 238 -1.3976283e-01 5.32e-05 1.22e-03  -7.5 1.57e+00    -  1.00e+00 1.00e+00h  1
 239 -1.3976283e-01 3.05e-10 1.10e-09  -7.5 1.90e-03    -  1.00e+00 1.00e+00h  1
iter    objective    inf_pr   inf_du lg(mu)  ||d||  lg(rg) alpha_du alpha_pr  ls
 240 -1.3976651e-01 2.60e-01 3.23e+00  -9.0 2.83e+02    -  7.46e-01 4.11e-01h  1
 241 -1.3976682e-01 2.44e-01 4.71e+00  -9.0 2.17e+02    -  9.28e-01 9.39e-02h  1
 242 -1.3976813e-01 4.48e-01 3.69e+00  -9.0 1.58e+02 -11.7 1.00e+00 9.51e-01h  1
 243 -1.3976794e-01 1.35e-01 1.52e-01  -9.0 1.08e+02    -  5.06e-01 1.00e+00h  1
 244 -1.3976793e-01 1.88e-02 3.29e-06  -9.0 4.02e+01 -12.2 1.00e+00 1.00e+00h  1
 245 -1.3976794e-01 2.63e-01 1.50e-05  -9.0 1.51e+02 -12.7 1.00e+00 1.00e+00h  1
 246 -1.3976794e-01 5.60e-02 3.17e-06  -9.0 6.91e+01 -12.2 1.00e+00 1.00e+00h  1
 247 -1.3976797e-01 5.21e-04 7.21e-05  -9.0 3.29e+02 -12.7 1.00e+00 1.00e+00H  1
 248 -1.3976798e-01 5.95e-02 1.48e-05  -9.0 1.54e+02 -12.3 1.00e+00 1.00e+00H  1
 249 -1.3976823e-01 3.93e+00 2.83e-02  -9.0 8.08e+02 -12.8 5.36e-02 1.00e+00H  1
iter    objective    inf_pr   inf_du lg(mu)  ||d||  lg(rg) alpha_du alpha_pr  ls
 250 -1.3976840e-01 5.84e+00 2.39e-04  -9.0 6.80e+02 -12.3 1.00e+00 1.00e+00h  1
 251 -1.3976922e-01 9.02e+01 4.26e-03  -9.0 5.02e+03 -12.8 5.47e-01 5.22e-01h  1
 252 -1.3976898e-01 1.36e+01 7.59e-04  -9.0 1.07e+03    -  1.00e+00 1.00e+00h  1
 253 -1.3976966e-01 2.51e+01 1.31e-01  -9.0 1.35e+03 -12.4 3.65e-01 1.00e+00h  1
 254 -1.3977077e-01 6.96e+01 2.87e-02  -9.0 1.24e+04    -  8.87e-02 1.49e-01h  1
 255 -1.3977225e-01 6.12e+01 1.59e+00  -9.0 1.93e+03    -  1.51e-01 1.00e+00h  1
 256 -1.3977246e-01 5.41e+01 1.93e-01  -9.0 1.80e+03    -  3.30e-01 1.33e-01h  1
 257 -1.3977404e-01 5.37e+01 2.53e-01  -9.0 1.73e+03    -  9.53e-01 1.00e+00h  1
 258 -1.3977492e-01 3.99e+01 5.06e+00  -9.0 1.62e+03    -  1.49e-02 5.51e-01h  1
 259 -1.3977524e-01 3.46e+01 8.84e+00  -9.0 1.65e+03    -  5.33e-02 1.74e-01h  1
iter    objective    inf_pr   inf_du lg(mu)  ||d||  lg(rg) alpha_du alpha_pr  ls
 260 -1.3977702e-01 4.59e+01 2.88e+03  -9.0 1.50e+03    -  3.49e-03 1.00e+00f  1
 261 -1.3977730e-01 4.48e+01 2.76e+03  -9.0 4.45e+03 -12.0 2.08e-01 3.95e-02h  1
 262 -1.3977949e-01 3.49e+01 6.12e+01  -9.0 1.23e+03    -  1.87e-01 1.00e+00h  1
 263 -1.3978025e-01 2.81e+01 4.85e+01  -9.0 1.22e+03 -11.5 6.57e-01 2.74e-01h  1
 264 -1.3977959e-01 2.08e+00 1.49e+01  -9.0 3.22e+02    -  3.26e-01 1.00e+00h  1
 265 -1.3978020e-01 3.51e+00 1.01e+01  -9.0 9.34e+02    -  1.00e+00 3.18e-01h  1
 266 -1.3978029e-01 1.84e-05 5.88e-04  -9.0 3.97e+00    -  1.00e+00 1.00e+00h  1
 267 -1.3978028e-01 9.50e-10 1.33e-07  -9.0 6.08e-03    -  1.00e+00 1.00e+00h  1
 268 -1.3978028e-01 3.05e-10 5.00e-14  -9.0 7.15e-07    -  1.00e+00 1.00e+00h  1

Number of Iterations....: 268

                                   (scaled)                 (unscaled)
Objective...............:  -1.3978028493138273e-01   -1.3978028493138273e-01
Dual infeasibility......:   5.0043302834978931e-14    5.0043302834978931e-14
Constraint violation....:   3.0548401416981286e-10    3.0548401416981286e-10
Complementarity.........:   9.0909092043480116e-10    9.0909092043480116e-10
Overall NLP error.......:   9.0909092043480116e-10    9.0909092043480116e-10


Number of objective function evaluations             = 357
Number of objective gradient evaluations             = 267
Number of equality constraint evaluations            = 357
Number of inequality constraint evaluations          = 358
Number of equality constraint Jacobian evaluations   = 271
Number of inequality constraint Jacobian evaluations = 271
Number of Lagrangian Hessian evaluations             = 268
Total CPU secs in IPOPT (w/o function evaluations)   =    115.046
Total CPU secs in NLP function evaluations           =      4.355

EXIT: Optimal Solution Found.
